p cnf 539 1271
a 453 347 352 355 465 228 240 252 362 480 367 370 375 378 382 497 390 393 397 400 405 408 412 415 421 424 428 431 526 438 442 445 7 13 24 30 2 1 40 18 6 12 35 23 29 50 45 60 55 70 65 80 75 85 90 95 105 100 110 115 120 130 125 135 140 145 163 158 150 154 180 175 167 171 184 193 188 203 198 212 208 227 222 217 239 234 251 246 258 271 263 267 281 276 286 290 294 299 308 304 313 318 323 327 331 336 341 0
d 346 453 163 180 2 0
d 259 465 2 0
d 360 227 239 251 258 271 0
d 365 480 286 290 2 0
d 272 263 24 267 7 0
d 436 2 526 0
d 385 497 323 327 2 0
d 3 2 0
d 4 1 2 0
d 5 1 2 0
d 8 7 0
d 9 6 7 0
d 10 6 7 0
d 11 1 2 6 7 0
d 14 13 0
d 15 12 13 0
d 16 12 13 0
d 17 1 2 6 7 12 13 0
d 19 6 12 0
d 20 18 6 12 0
d 21 18 6 12 0
d 22 1 2 6 7 12 13 18 0
d 25 24 0
d 26 23 24 0
d 27 23 24 0
d 28 1 2 6 7 12 13 18 23 24 0
d 31 30 0
d 32 29 30 0
d 33 29 30 0
d 34 1 2 6 7 12 13 18 23 24 29 30 0
d 36 23 29 0
d 37 35 23 29 0
d 38 35 23 29 0
d 39 1 2 6 7 12 13 18 23 24 29 30 35 0
d 41 18 35 0
d 42 40 18 35 0
d 43 40 18 35 0
d 44 1 2 6 7 12 13 18 23 24 29 30 35 40 0
d 46 7 12 0
d 47 45 7 12 0
d 48 45 7 12 0
d 49 1 2 6 7 12 13 18 23 24 29 30 35 40 45 0
d 51 45 35 0
d 52 50 45 35 0
d 53 50 45 35 0
d 54 1 2 6 7 12 13 18 23 24 29 30 35 40 45 50 0
d 56 6 13 0
d 57 55 6 13 0
d 58 55 6 13 0
d 59 1 2 6 7 12 13 18 23 24 29 30 35 40 45 50 55 0
d 61 55 35 0
d 62 60 55 35 0
d 63 60 55 35 0
d 64 1 2 6 7 12 13 18 23 24 29 30 35 40 45 50 55 60 0
d 66 7 13 0
d 67 65 7 13 0
d 68 65 7 13 0
d 69 1 2 6 7 12 13 18 23 24 29 30 35 40 45 50 55 60 65 0
d 71 65 35 0
d 72 70 65 35 0
d 73 70 65 35 0
d 74 1 2 6 7 12 13 18 23 24 29 30 35 40 45 50 55 60 65 70 0
d 76 24 29 0
d 77 75 24 29 0
d 78 75 24 29 0
d 79 1 2 6 7 12 13 18 23 24 29 30 35 40 45 50 55 60 65 70 75 0
d 81 18 75 0
d 82 80 18 75 0
d 83 80 18 75 0
d 84 1 2 6 7 12 13 18 23 24 29 30 35 40 45 50 55 60 65 70 75 80 0
d 86 45 75 0
d 87 85 45 75 0
d 88 85 45 75 0
d 89 1 2 6 7 12 13 18 23 24 29 30 35 40 45 50 55 60 65 70 75 80 85 0
d 91 55 75 0
d 92 90 55 75 0
d 93 90 55 75 0
d 94 1 2 6 7 12 13 18 23 24 29 30 35 40 45 50 55 60 65 70 75 80 85 90 0
d 96 65 75 0
d 97 95 65 75 0
d 98 95 65 75 0
d 99 1 2 6 7 12 13 18 23 24 29 30 35 40 45 50 55 60 65 70 75 80 85 90 95 0
d 101 23 30 0
d 102 100 23 30 0
d 103 100 23 30 0
d 104 1 2 6 7 12 13 18 23 24 29 30 35 40 45 50 55 60 65 70 75 80 85 90 95 100 0
d 106 18 100 0
d 107 105 18 100 0
d 108 105 18 100 0
d 109 1 2 6 7 12 13 18 23 24 29 30 35 40 45 50 55 60 65 70 75 80 85 90 95 100 105 0
d 111 45 100 0
d 112 110 45 100 0
d 113 110 45 100 0
d 114 1 2 6 7 12 13 18 23 24 29 30 35 40 45 50 55 60 65 70 75 80 85 90 95 100 105 110 0
d 116 55 100 0
d 117 115 55 100 0
d 118 115 55 100 0
d 119 1 2 6 7 12 13 18 23 24 29 30 35 40 45 50 55 60 65 70 75 80 85 90 95 100 105 110 115 0
d 121 65 100 0
d 122 120 65 100 0
d 123 120 65 100 0
d 124 1 2 6 7 12 13 18 23 24 29 30 35 40 45 50 55 60 65 70 75 80 85 90 95 100 105 110 115 120 0
d 126 24 30 0
d 127 125 24 30 0
d 128 125 24 30 0
d 129 1 2 6 7 12 13 18 23 24 29 30 35 40 45 50 55 60 65 70 75 80 85 90 95 100 105 110 115 120 125 0
d 131 18 125 0
d 132 130 18 125 0
d 133 130 18 125 0
d 134 1 2 6 7 12 13 18 23 24 29 30 35 40 45 50 55 60 65 70 75 80 85 90 95 100 105 110 115 120 125 130 0
d 136 45 125 0
d 137 135 45 125 0
d 138 135 45 125 0
d 139 1 2 6 7 12 13 18 23 24 29 30 35 40 45 50 55 60 65 70 75 80 85 90 95 100 105 110 115 120 125 130 135 0
d 141 55 125 0
d 142 140 55 125 0
d 143 140 55 125 0
d 144 1 2 6 7 12 13 18 23 24 29 30 35 40 45 50 55 60 65 70 75 80 85 90 95 100 105 110 115 120 125 130 135 140 0
d 146 65 125 0
d 147 145 65 125 0
d 148 145 65 125 0
d 149 1 2 6 7 12 13 18 23 24 29 30 35 40 45 50 55 60 65 70 75 80 85 90 95 100 105 110 115 120 125 130 135 140 145 0
d 151 150 7 0
d 152 150 7 0
d 153 1 2 6 7 12 13 18 23 24 29 30 35 40 45 50 55 60 65 70 75 80 85 90 95 100 105 110 115 120 125 130 135 140 145 150 0
d 155 154 13 0
d 156 154 13 0
d 157 1 2 6 7 12 13 18 23 24 29 30 35 40 45 50 55 60 65 70 75 80 85 90 95 100 105 110 115 120 125 130 135 140 145 150 154 0
d 159 150 154 0
d 160 158 150 154 0
d 161 158 150 154 0
d 162 1 2 6 7 12 13 18 23 24 29 30 35 40 45 50 55 60 65 70 75 80 85 90 95 100 105 110 115 120 125 130 135 140 145 150 154 158 0
d 164 163 158 0
d 165 163 158 0
d 166 1 2 6 7 12 13 18 23 24 29 30 35 40 45 50 55 60 65 70 75 80 85 90 95 100 105 110 115 120 125 130 135 140 145 150 154 158 163 0
d 168 167 24 0
d 169 167 24 0
d 170 1 2 6 7 12 13 18 23 24 29 30 35 40 45 50 55 60 65 70 75 80 85 90 95 100 105 110 115 120 125 130 135 140 145 150 154 158 163 167 0
d 172 171 30 0
d 173 171 30 0
d 174 1 2 6 7 12 13 18 23 24 29 30 35 40 45 50 55 60 65 70 75 80 85 90 95 100 105 110 115 120 125 130 135 140 145 150 154 158 163 167 171 0
d 176 167 171 0
d 177 175 167 171 0
d 178 175 167 171 0
d 179 1 2 6 7 12 13 18 23 24 29 30 35 40 45 50 55 60 65 70 75 80 85 90 95 100 105 110 115 120 125 130 135 140 145 150 154 158 163 167 171 175 0
d 181 180 175 0
d 182 180 175 0
d 183 1 2 6 7 12 13 18 23 24 29 30 35 40 45 50 55 60 65 70 75 80 85 90 95 100 105 110 115 120 125 130 135 140 145 150 154 158 163 167 171 175 180 0
d 185 184 2 0
d 186 184 2 0
d 187 1 2 6 7 12 13 18 23 24 29 30 35 40 45 50 55 60 65 70 75 80 85 90 95 100 105 110 115 120 125 130 135 140 145 150 154 158 163 167 171 175 180 184 0
d 189 7 154 0
d 190 188 7 154 0
d 191 188 7 154 0
d 192 1 2 6 7 12 13 18 23 24 29 30 35 40 45 50 55 60 65 70 75 80 85 90 95 100 105 110 115 120 125 130 135 140 145 150 154 158 163 167 171 175 180 184 188 0
d 194 188 175 0
d 195 193 188 175 0
d 196 193 188 175 0
d 197 1 2 6 7 12 13 18 23 24 29 30 35 40 45 50 55 60 65 70 75 80 85 90 95 100 105 110 115 120 125 130 135 140 145 150 154 158 163 167 171 175 180 184 188 193 0
d 199 150 13 0
d 200 198 150 13 0
d 201 198 150 13 0
d 202 1 2 6 7 12 13 18 23 24 29 30 35 40 45 50 55 60 65 70 75 80 85 90 95 100 105 110 115 120 125 130 135 140 145 150 154 158 163 167 171 175 180 184 188 193 198 0
d 204 198 175 0
d 205 203 198 175 0
d 206 203 198 175 0
d 207 1 2 6 7 12 13 18 23 24 29 30 35 40 45 50 55 60 65 70 75 80 85 90 95 100 105 110 115 120 125 130 135 140 145 150 154 158 163 167 171 175 180 184 188 193 198 203 0
d 209 208 7 13 0
d 210 208 7 13 0
d 211 1 2 6 7 12 13 18 23 24 29 30 35 40 45 50 55 60 65 70 75 80 85 90 95 100 105 110 115 120 125 130 135 140 145 150 154 158 163 167 171 175 180 184 188 193 198 203 208 0
d 213 208 175 0
d 214 212 208 175 0
d 215 212 208 175 0
d 216 1 2 6 7 12 13 18 23 24 29 30 35 40 45 50 55 60 65 70 75 80 85 90 95 100 105 110 115 120 125 130 135 140 145 150 154 158 163 167 171 175 180 184 188 193 198 203 208 212 0
d 218 24 171 0
d 219 217 24 171 0
d 220 217 24 171 0
d 221 1 2 6 7 12 13 18 23 24 29 30 35 40 45 50 55 60 65 70 75 80 85 90 95 100 105 110 115 120 125 130 135 140 145 150 154 158 163 167 171 175 180 184 188 193 198 203 208 212 217 0
d 223 188 217 0
d 224 222 188 217 0
d 225 222 188 217 0
d 226 1 2 6 7 12 13 18 23 24 29 30 35 40 45 50 55 60 65 70 75 80 85 90 95 100 105 110 115 120 125 130 135 140 145 150 154 158 163 167 171 175 180 184 188 193 198 203 208 212 217 222 0
d 229 184 228 0
d 230 184 228 222 0
d 231 227 184 228 222 0
d 232 227 184 228 222 0
d 233 1 2 6 7 12 13 18 23 24 29 30 35 40 45 50 55 60 65 70 75 80 85 90 95 100 105 110 115 120 125 130 135 140 145 150 154 158 163 167 171 175 180 184 188 193 198 203 208 212 217 222 227 228 0
d 235 198 217 0
d 236 234 198 217 0
d 237 234 198 217 0
d 238 1 2 6 7 12 13 18 23 24 29 30 35 40 45 50 55 60 65 70 75 80 85 90 95 100 105 110 115 120 125 130 135 140 145 150 154 158 163 167 171 175 180 184 188 193 198 203 208 212 217 222 227 228 234 0
d 241 184 240 0
d 242 184 240 234 0
d 243 239 184 240 234 0
d 244 239 184 240 234 0
d 245 1 2 6 7 12 13 18 23 24 29 30 35 40 45 50 55 60 65 70 75 80 85 90 95 100 105 110 115 120 125 130 135 140 145 150 154 158 163 167 171 175 180 184 188 193 198 203 208 212 217 222 227 228 234 239 240 0
d 247 208 217 0
d 248 246 208 217 0
d 249 246 208 217 0
d 250 1 2 6 7 12 13 18 23 24 29 30 35 40 45 50 55 60 65 70 75 80 85 90 95 100 105 110 115 120 125 130 135 140 145 150 154 158 163 167 171 175 180 184 188 193 198 203 208 212 217 222 227 228 234 239 240 246 0
d 253 184 252 0
d 254 184 252 246 0
d 255 251 184 252 246 0
d 256 251 184 252 246 0
d 257 1 2 6 7 12 13 18 23 24 29 30 35 40 45 50 55 60 65 70 75 80 85 90 95 100 105 110 115 120 125 130 135 140 145 150 154 158 163 167 171 175 180 184 188 193 198 203 208 212 217 222 227 228 234 239 240 246 251 252 0
d 260 258 465 2 0
d 261 258 465 2 0
d 262 1 2 6 7 12 13 18 23 24 29 30 35 40 45 50 55 60 65 70 75 80 85 90 95 100 105 110 115 120 125 130 135 140 145 150 154 158 163 167 171 175 180 184 188 193 198 203 208 212 217 222 227 228 234 239 240 246 251 252 258 465 0
d 264 263 154 0
d 265 263 154 0
d 266 1 2 6 7 12 13 18 23 24 29 30 35 40 45 50 55 60 65 70 75 80 85 90 95 100 105 110 115 120 125 130 135 140 145 150 154 158 163 167 171 175 180 184 188 193 198 203 208 212 217 222 227 228 234 239 240 246 251 252 258 465 263 0
d 268 267 171 0
d 269 267 171 0
d 270 1 2 6 7 12 13 18 23 24 29 30 35 40 45 50 55 60 65 70 75 80 85 90 95 100 105 110 115 120 125 130 135 140 145 150 154 158 163 167 171 175 180 184 188 193 198 203 208 212 217 222 227 228 234 239 240 246 251 252 258 465 263 267 0
d 273 271 263 24 267 7 0
d 274 271 263 24 267 7 0
d 275 1 2 6 7 12 13 18 23 24 29 30 35 40 45 50 55 60 65 70 75 80 85 90 95 100 105 110 115 120 125 130 135 140 145 150 154 158 163 167 171 175 180 184 188 193 198 203 208 212 217 222 227 228 234 239 240 246 251 252 258 465 263 267 271 0
d 277 167 30 0
d 278 276 167 30 0
d 279 276 167 30 0
d 280 1 2 6 7 12 13 18 23 24 29 30 35 40 45 50 55 60 65 70 75 80 85 90 95 100 105 110 115 120 125 130 135 140 145 150 154 158 163 167 171 175 180 184 188 193 198 203 208 212 217 222 227 228 234 239 240 246 251 252 258 465 263 267 271 276 0
d 282 158 276 0
d 283 281 158 276 0
d 284 281 158 276 0
d 285 1 2 6 7 12 13 18 23 24 29 30 35 40 45 50 55 60 65 70 75 80 85 90 95 100 105 110 115 120 125 130 135 140 145 150 154 158 163 167 171 175 180 184 188 193 198 203 208 212 217 222 227 228 234 239 240 246 251 252 258 465 263 267 271 276 281 0
d 287 286 188 0
d 288 286 188 0
d 289 1 2 6 7 12 13 18 23 24 29 30 35 40 45 50 55 60 65 70 75 80 85 90 95 100 105 110 115 120 125 130 135 140 145 150 154 158 163 167 171 175 180 184 188 193 198 203 208 212 217 222 227 228 234 239 240 246 251 252 258 465 263 267 271 276 281 286 0
d 291 290 276 0
d 292 290 276 0
d 293 1 2 6 7 12 13 18 23 24 29 30 35 40 45 50 55 60 65 70 75 80 85 90 95 100 105 110 115 120 125 130 135 140 145 150 154 158 163 167 171 175 180 184 188 193 198 203 208 212 217 222 227 228 234 239 240 246 251 252 258 465 263 267 271 276 281 286 290 0
d 295 198 276 0
d 296 294 198 276 0
d 297 294 198 276 0
d 298 1 2 6 7 12 13 18 23 24 29 30 35 40 45 50 55 60 65 70 75 80 85 90 95 100 105 110 115 120 125 130 135 140 145 150 154 158 163 167 171 175 180 184 188 193 198 203 208 212 217 222 227 228 234 239 240 246 251 252 258 465 263 267 271 276 281 286 290 294 0
d 300 208 276 0
d 301 299 208 276 0
d 302 299 208 276 0
d 303 1 2 6 7 12 13 18 23 24 29 30 35 40 45 50 55 60 65 70 75 80 85 90 95 100 105 110 115 120 125 130 135 140 145 150 154 158 163 167 171 175 180 184 188 193 198 203 208 212 217 222 227 228 234 239 240 246 251 252 258 465 263 267 271 276 281 286 290 294 299 0
d 305 304 24 30 0
d 306 304 24 30 0
d 307 1 2 6 7 12 13 18 23 24 29 30 35 40 45 50 55 60 65 70 75 80 85 90 95 100 105 110 115 120 125 130 135 140 145 150 154 158 163 167 171 175 180 184 188 193 198 203 208 212 217 222 227 228 234 239 240 246 251 252 258 465 263 267 271 276 281 286 290 294 299 304 0
d 309 158 304 0
d 310 308 158 304 0
d 311 308 158 304 0
d 312 1 2 6 7 12 13 18 23 24 29 30 35 40 45 50 55 60 65 70 75 80 85 90 95 100 105 110 115 120 125 130 135 140 145 150 154 158 163 167 171 175 180 184 188 193 198 203 208 212 217 222 227 228 234 239 240 246 251 252 258 465 263 267 271 276 281 286 290 294 299 304 308 0
d 314 188 304 0
d 315 313 188 304 0
d 316 313 188 304 0
d 317 1 2 6 7 12 13 18 23 24 29 30 35 40 45 50 55 60 65 70 75 80 85 90 95 100 105 110 115 120 125 130 135 140 145 150 154 158 163 167 171 175 180 184 188 193 198 203 208 212 217 222 227 228 234 239 240 246 251 252 258 465 263 267 271 276 281 286 290 294 299 304 308 313 0
d 319 198 304 0
d 320 318 198 304 0
d 321 318 198 304 0
d 322 1 2 6 7 12 13 18 23 24 29 30 35 40 45 50 55 60 65 70 75 80 85 90 95 100 105 110 115 120 125 130 135 140 145 150 154 158 163 167 171 175 180 184 188 193 198 203 208 212 217 222 227 228 234 239 240 246 251 252 258 465 263 267 271 276 281 286 290 294 299 304 308 313 318 0
d 324 323 208 0
d 325 323 208 0
d 326 1 2 6 7 12 13 18 23 24 29 30 35 40 45 50 55 60 65 70 75 80 85 90 95 100 105 110 115 120 125 130 135 140 145 150 154 158 163 167 171 175 180 184 188 193 198 203 208 212 217 222 227 228 234 239 240 246 251 252 258 465 263 267 271 276 281 286 290 294 299 304 308 313 318 323 0
d 328 327 304 0
d 329 327 304 0
d 330 1 2 6 7 12 13 18 23 24 29 30 35 40 45 50 55 60 65 70 75 80 85 90 95 100 105 110 115 120 125 130 135 140 145 150 154 158 163 167 171 175 180 184 188 193 198 203 208 212 217 222 227 228 234 239 240 246 251 252 258 465 263 267 271 276 281 286 290 294 299 304 308 313 318 323 327 0
d 332 158 175 0
d 333 331 158 175 0
d 334 331 158 175 0
d 335 1 2 6 7 12 13 18 23 24 29 30 35 40 45 50 55 60 65 70 75 80 85 90 95 100 105 110 115 120 125 130 135 140 145 150 154 158 163 167 171 175 180 184 188 193 198 203 208 212 217 222 227 228 234 239 240 246 251 252 258 465 263 267 271 276 281 286 290 294 299 304 308 313 318 323 327 331 0
d 337 188 276 0
d 338 336 188 276 0
d 339 336 188 276 0
d 340 1 2 6 7 12 13 18 23 24 29 30 35 40 45 50 55 60 65 70 75 80 85 90 95 100 105 110 115 120 125 130 135 140 145 150 154 158 163 167 171 175 180 184 188 193 198 203 208 212 217 222 227 228 234 239 240 246 251 252 258 465 263 267 271 276 281 286 290 294 299 304 308 313 318 323 327 331 336 0
d 342 208 304 0
d 343 341 208 304 0
d 344 341 208 304 0
d 345 1 2 6 7 12 13 18 23 24 29 30 35 40 45 50 55 60 65 70 75 80 85 90 95 100 105 110 115 120 125 130 135 140 145 150 154 158 163 167 171 175 180 184 188 193 198 203 208 212 217 222 227 228 234 239 240 246 251 252 258 465 263 267 271 276 281 286 290 294 299 304 308 313 318 323 327 331 336 341 0
d 348 184 347 0
d 349 184 347 193 0
d 350 184 347 193 0
d 351 453 163 180 2 184 347 193 0
d 353 184 352 0
d 354 184 352 203 0
d 356 184 355 0
d 357 184 355 212 0
d 358 184 352 203 355 212 0
d 359 453 163 180 2 184 347 193 352 203 355 212 0
d 361 453 163 180 2 184 347 193 352 203 355 212 227 239 251 258 271 0
d 363 184 362 0
d 364 184 362 281 0
d 366 184 362 281 480 286 290 2 0
d 368 184 367 0
d 369 184 367 294 0
d 371 184 370 0
d 372 184 370 299 0
d 373 184 367 294 370 299 0
d 374 184 362 281 480 286 290 2 367 294 370 299 0
d 376 184 375 0
d 377 184 375 308 0
d 379 184 378 0
d 380 184 378 313 0
d 381 184 375 308 378 313 0
d 383 184 382 0
d 384 184 382 318 0
d 386 184 382 318 497 323 327 2 0
d 387 184 375 308 378 313 382 318 497 323 327 2 0
d 388 184 362 281 480 286 290 2 367 294 370 299 375 308 378 313 382 318 497 323 327 0
d 389 453 163 180 2 184 347 193 352 203 355 212 227 239 251 258 271 362 281 480 286 290 367 294 370 299 375 308 378 313 382 318 497 323 327 0
d 391 2 390 0
d 392 2 390 331 0
d 394 2 393 0
d 395 2 393 193 0
d 396 2 390 331 393 193 0
d 398 2 397 0
d 399 2 397 203 0
d 401 2 400 0
d 402 2 400 212 0
d 403 2 397 203 400 212 0
d 404 2 390 331 393 193 397 203 400 212 0
d 406 2 405 0
d 407 2 405 263 24 267 7 0
d 409 2 408 0
d 410 2 408 222 0
d 411 2 405 263 24 267 7 408 222 0
d 413 2 412 0
d 414 2 412 234 0
d 416 2 415 0
d 417 2 415 246 0
d 418 2 412 234 415 246 0
d 419 2 405 263 24 267 7 408 222 412 234 415 246 0
d 420 2 390 331 393 193 397 203 400 212 405 263 24 267 7 408 222 412 234 415 246 0
d 422 2 421 0
d 423 2 421 281 0
d 425 2 424 0
d 426 2 424 336 0
d 427 2 421 281 424 336 0
d 429 2 428 0
d 430 2 428 294 0
d 432 2 431 0
d 433 2 431 299 0
d 434 2 428 294 431 299 0
d 435 2 421 281 424 336 428 294 431 299 0
d 437 2 526 308 0
d 439 2 438 0
d 440 2 438 313 0
d 441 2 526 308 438 313 0
d 443 2 442 0
d 444 2 442 318 0
d 446 2 445 0
d 447 2 445 341 0
d 448 2 442 318 445 341 0
d 449 2 526 308 438 313 442 318 445 341 0
d 450 2 421 281 424 336 428 294 431 299 526 308 438 313 442 318 445 341 0
d 451 2 390 331 393 193 397 203 400 212 405 263 24 267 7 408 222 412 234 415 246 421 281 424 336 428 294 431 299 526 308 438 313 442 318 445 341 0
d 452 453 163 180 2 184 347 193 352 203 355 212 227 239 251 258 271 362 281 480 286 290 367 294 370 299 375 308 378 313 382 318 497 323 327 390 331 393 397 400 405 263 24 267 7 408 222 412 234 415 246 421 424 336 428 431 526 438 442 445 341 0
d 454 1 453 0
d 455 1 453 40 0
d 456 1 347 0
d 457 1 347 50 0
d 458 1 453 40 347 50 0
d 459 1 352 0
d 460 1 352 60 0
d 461 1 355 0
d 462 1 355 70 0
d 463 1 352 60 355 70 0
d 464 1 453 40 347 50 352 60 355 70 0
d 466 1 465 0
d 467 1 465 80 0
d 468 1 228 0
d 469 1 228 85 0
d 470 1 465 80 228 85 0
d 471 1 240 0
d 472 1 240 90 0
d 473 1 252 0
d 474 1 252 95 0
d 475 1 240 90 252 95 0
d 476 1 465 80 228 85 240 90 252 95 0
d 477 1 453 40 347 50 352 60 355 70 465 80 228 85 240 90 252 95 0
d 478 1 362 0
d 479 1 362 105 0
d 481 1 480 0
d 482 1 480 110 0
d 483 1 362 105 480 110 0
d 484 1 367 0
d 485 1 367 115 0
d 486 1 370 0
d 487 1 370 120 0
d 488 1 367 115 370 120 0
d 489 1 362 105 480 110 367 115 370 120 0
d 490 1 375 0
d 491 1 375 130 0
d 492 1 378 0
d 493 1 378 135 0
d 494 1 375 130 378 135 0
d 495 1 382 0
d 496 1 382 140 0
d 498 1 497 0
d 499 1 497 145 0
d 500 1 382 140 497 145 0
d 501 1 375 130 378 135 382 140 497 145 0
d 502 1 362 105 480 110 367 115 370 120 375 130 378 135 382 140 497 145 0
d 503 1 453 40 347 50 352 60 355 70 465 80 228 85 240 90 252 95 362 105 480 110 367 115 370 120 375 130 378 135 382 140 497 145 0
d 504 2 390 40 0
d 505 2 393 50 0
d 506 2 390 40 393 50 0
d 507 2 397 60 0
d 508 2 400 70 0
d 509 2 397 60 400 70 0
d 510 2 390 40 393 50 397 60 400 70 0
d 511 2 405 80 0
d 512 2 408 85 0
d 513 2 405 80 408 85 0
d 514 2 412 90 0
d 515 2 415 95 0
d 516 2 412 90 415 95 0
d 517 2 405 80 408 85 412 90 415 95 0
d 518 2 390 40 393 50 397 60 400 70 405 80 408 85 412 90 415 95 0
d 519 2 421 105 0
d 520 2 424 110 0
d 521 2 421 105 424 110 0
d 522 2 428 115 0
d 523 2 431 120 0
d 524 2 428 115 431 120 0
d 525 2 421 105 424 110 428 115 431 120 0
d 527 2 526 0
d 528 2 526 130 0
d 529 2 438 135 0
d 530 2 526 130 438 135 0
d 531 2 442 140 0
d 532 2 445 145 0
d 533 2 442 140 445 145 0
d 534 2 526 130 438 135 442 140 445 145 0
d 535 2 421 105 424 110 428 115 431 120 526 130 438 135 442 140 445 145 0
d 536 2 390 40 393 50 397 60 400 70 405 80 408 85 412 90 415 95 421 105 424 110 428 115 431 120 526 130 438 135 442 140 445 145 0
d 537 1 453 40 347 50 352 60 355 70 465 80 228 85 240 90 252 95 362 105 480 110 367 115 370 120 375 130 378 135 382 140 497 145 2 390 393 397 400 405 408 412 415 421 424 428 431 526 438 442 445 0
d 538 453 163 180 2 184 347 193 352 203 355 212 227 239 251 258 271 362 281 480 286 290 367 294 370 299 375 308 378 313 382 318 497 323 327 390 331 393 397 400 405 263 24 267 7 408 222 412 234 415 246 421 424 336 428 431 526 438 442 445 341 1 40 50 60 70 465 80 228 85 240 90 252 95 105 110 115 120 130 135 140 145 0
d 539 1 2 6 7 12 13 18 23 24 29 30 35 40 45 50 55 60 65 70 75 80 85 90 95 100 105 110 115 120 125 130 135 140 145 150 154 158 163 167 171 175 180 184 188 193 198 203 208 212 217 222 227 228 234 239 240 246 251 252 258 465 263 267 271 276 281 286 290 294 299 304 308 313 318 323 327 331 336 341 453 347 352 355 362 480 367 370 375 378 382 497 390 393 397 400 405 408 412 415 421 424 428 431 526 438 442 445 0
3 2 0
-3 -2 0
4 -1 -3 0
4 1 3 0
-4 -1 3 0
-4 1 -3 0
5 4 0
-5 -4 0
8 7 0
-8 -7 0
9 -6 -8 0
9 6 8 0
-9 -6 8 0
-9 6 -8 0
10 9 0
-10 -9 0
11 -5 0
11 -10 0
-11 5 10 0
14 13 0
-14 -13 0
15 -12 -14 0
15 12 14 0
-15 -12 14 0
-15 12 -14 0
16 15 0
-16 -15 0
17 -11 0
17 -16 0
-17 11 16 0
-19 6 0
-19 12 0
19 -6 -12 0
20 -18 -19 0
20 18 19 0
-20 -18 19 0
-20 18 -19 0
21 20 0
-21 -20 0
22 -17 0
22 -21 0
-22 17 21 0
25 24 0
-25 -24 0
26 -23 -25 0
26 23 25 0
-26 -23 25 0
-26 23 -25 0
27 26 0
-27 -26 0
28 -22 0
28 -27 0
-28 22 27 0
31 30 0
-31 -30 0
32 -29 -31 0
32 29 31 0
-32 -29 31 0
-32 29 -31 0
33 32 0
-33 -32 0
34 -28 0
34 -33 0
-34 28 33 0
-36 23 0
-36 29 0
36 -23 -29 0
37 -35 -36 0
37 35 36 0
-37 -35 36 0
-37 35 -36 0
38 37 0
-38 -37 0
39 -34 0
39 -38 0
-39 34 38 0
-41 18 0
-41 35 0
41 -18 -35 0
42 -40 -41 0
42 40 41 0
-42 -40 41 0
-42 40 -41 0
43 42 0
-43 -42 0
44 -39 0
44 -43 0
-44 39 43 0
-46 7 0
-46 12 0
46 -7 -12 0
47 -45 -46 0
47 45 46 0
-47 -45 46 0
-47 45 -46 0
48 47 0
-48 -47 0
49 -44 0
49 -48 0
-49 44 48 0
-51 45 0
-51 35 0
51 -45 -35 0
52 -50 -51 0
52 50 51 0
-52 -50 51 0
-52 50 -51 0
53 52 0
-53 -52 0
54 -49 0
54 -53 0
-54 49 53 0
-56 6 0
-56 13 0
56 -6 -13 0
57 -55 -56 0
57 55 56 0
-57 -55 56 0
-57 55 -56 0
58 57 0
-58 -57 0
59 -54 0
59 -58 0
-59 54 58 0
-61 55 0
-61 35 0
61 -55 -35 0
62 -60 -61 0
62 60 61 0
-62 -60 61 0
-62 60 -61 0
63 62 0
-63 -62 0
64 -59 0
64 -63 0
-64 59 63 0
-66 7 0
-66 13 0
66 -7 -13 0
67 -65 -66 0
67 65 66 0
-67 -65 66 0
-67 65 -66 0
68 67 0
-68 -67 0
69 -64 0
69 -68 0
-69 64 68 0
-71 65 0
-71 35 0
71 -65 -35 0
72 -70 -71 0
72 70 71 0
-72 -70 71 0
-72 70 -71 0
73 72 0
-73 -72 0
74 -69 0
74 -73 0
-74 69 73 0
-76 24 0
-76 29 0
76 -24 -29 0
77 -75 -76 0
77 75 76 0
-77 -75 76 0
-77 75 -76 0
78 77 0
-78 -77 0
79 -74 0
79 -78 0
-79 74 78 0
-81 18 0
-81 75 0
81 -18 -75 0
82 -80 -81 0
82 80 81 0
-82 -80 81 0
-82 80 -81 0
83 82 0
-83 -82 0
84 -79 0
84 -83 0
-84 79 83 0
-86 45 0
-86 75 0
86 -45 -75 0
87 -85 -86 0
87 85 86 0
-87 -85 86 0
-87 85 -86 0
88 87 0
-88 -87 0
89 -84 0
89 -88 0
-89 84 88 0
-91 55 0
-91 75 0
91 -55 -75 0
92 -90 -91 0
92 90 91 0
-92 -90 91 0
-92 90 -91 0
93 92 0
-93 -92 0
94 -89 0
94 -93 0
-94 89 93 0
-96 65 0
-96 75 0
96 -65 -75 0
97 -95 -96 0
97 95 96 0
-97 -95 96 0
-97 95 -96 0
98 97 0
-98 -97 0
99 -94 0
99 -98 0
-99 94 98 0
-101 23 0
-101 30 0
101 -23 -30 0
102 -100 -101 0
102 100 101 0
-102 -100 101 0
-102 100 -101 0
103 102 0
-103 -102 0
104 -99 0
104 -103 0
-104 99 103 0
-106 18 0
-106 100 0
106 -18 -100 0
107 -105 -106 0
107 105 106 0
-107 -105 106 0
-107 105 -106 0
108 107 0
-108 -107 0
109 -104 0
109 -108 0
-109 104 108 0
-111 45 0
-111 100 0
111 -45 -100 0
112 -110 -111 0
112 110 111 0
-112 -110 111 0
-112 110 -111 0
113 112 0
-113 -112 0
114 -109 0
114 -113 0
-114 109 113 0
-116 55 0
-116 100 0
116 -55 -100 0
117 -115 -116 0
117 115 116 0
-117 -115 116 0
-117 115 -116 0
118 117 0
-118 -117 0
119 -114 0
119 -118 0
-119 114 118 0
-121 65 0
-121 100 0
121 -65 -100 0
122 -120 -121 0
122 120 121 0
-122 -120 121 0
-122 120 -121 0
123 122 0
-123 -122 0
124 -119 0
124 -123 0
-124 119 123 0
-126 24 0
-126 30 0
126 -24 -30 0
127 -125 -126 0
127 125 126 0
-127 -125 126 0
-127 125 -126 0
128 127 0
-128 -127 0
129 -124 0
129 -128 0
-129 124 128 0
-131 18 0
-131 125 0
131 -18 -125 0
132 -130 -131 0
132 130 131 0
-132 -130 131 0
-132 130 -131 0
133 132 0
-133 -132 0
134 -129 0
134 -133 0
-134 129 133 0
-136 45 0
-136 125 0
136 -45 -125 0
137 -135 -136 0
137 135 136 0
-137 -135 136 0
-137 135 -136 0
138 137 0
-138 -137 0
139 -134 0
139 -138 0
-139 134 138 0
-141 55 0
-141 125 0
141 -55 -125 0
142 -140 -141 0
142 140 141 0
-142 -140 141 0
-142 140 -141 0
143 142 0
-143 -142 0
144 -139 0
144 -143 0
-144 139 143 0
-146 65 0
-146 125 0
146 -65 -125 0
147 -145 -146 0
147 145 146 0
-147 -145 146 0
-147 145 -146 0
148 147 0
-148 -147 0
149 -144 0
149 -148 0
-149 144 148 0
151 -150 -8 0
151 150 8 0
-151 -150 8 0
-151 150 -8 0
152 151 0
-152 -151 0
153 -149 0
153 -152 0
-153 149 152 0
155 -154 -14 0
155 154 14 0
-155 -154 14 0
-155 154 -14 0
156 155 0
-156 -155 0
157 -153 0
157 -156 0
-157 153 156 0
-159 150 0
-159 154 0
159 -150 -154 0
160 -158 -159 0
160 158 159 0
-160 -158 159 0
-160 158 -159 0
161 160 0
-161 -160 0
162 -157 0
162 -161 0
-162 157 161 0
164 -163 -158 0
164 163 158 0
-164 -163 158 0
-164 163 -158 0
165 164 0
-165 -164 0
166 -162 0
166 -165 0
-166 162 165 0
168 -167 -25 0
168 167 25 0
-168 -167 25 0
-168 167 -25 0
169 168 0
-169 -168 0
170 -166 0
170 -169 0
-170 166 169 0
172 -171 -31 0
172 171 31 0
-172 -171 31 0
-172 171 -31 0
173 172 0
-173 -172 0
174 -170 0
174 -173 0
-174 170 173 0
-176 167 0
-176 171 0
176 -167 -171 0
177 -175 -176 0
177 175 176 0
-177 -175 176 0
-177 175 -176 0
178 177 0
-178 -177 0
179 -174 0
179 -178 0
-179 174 178 0
181 -180 -175 0
181 180 175 0
-181 -180 175 0
-181 180 -175 0
182 181 0
-182 -181 0
183 -179 0
183 -182 0
-183 179 182 0
185 -184 -3 0
185 184 3 0
-185 -184 3 0
-185 184 -3 0
186 185 0
-186 -185 0
187 -183 0
187 -186 0
-187 183 186 0
-189 7 0
-189 154 0
189 -7 -154 0
190 -188 -189 0
190 188 189 0
-190 -188 189 0
-190 188 -189 0
191 190 0
-191 -190 0
192 -187 0
192 -191 0
-192 187 191 0
-194 188 0
-194 175 0
194 -188 -175 0
195 -193 -194 0
195 193 194 0
-195 -193 194 0
-195 193 -194 0
196 195 0
-196 -195 0
197 -192 0
197 -196 0
-197 192 196 0
-199 150 0
-199 13 0
199 -150 -13 0
200 -198 -199 0
200 198 199 0
-200 -198 199 0
-200 198 -199 0
201 200 0
-201 -200 0
202 -197 0
202 -201 0
-202 197 201 0
-204 198 0
-204 175 0
204 -198 -175 0
205 -203 -204 0
205 203 204 0
-205 -203 204 0
-205 203 -204 0
206 205 0
-206 -205 0
207 -202 0
207 -206 0
-207 202 206 0
209 -208 -66 0
209 208 66 0
-209 -208 66 0
-209 208 -66 0
210 209 0
-210 -209 0
211 -207 0
211 -210 0
-211 207 210 0
-213 208 0
-213 175 0
213 -208 -175 0
214 -212 -213 0
214 212 213 0
-214 -212 213 0
-214 212 -213 0
215 214 0
-215 -214 0
216 -211 0
216 -215 0
-216 211 215 0
-218 24 0
-218 171 0
218 -24 -171 0
219 -217 -218 0
219 217 218 0
-219 -217 218 0
-219 217 -218 0
220 219 0
-220 -219 0
221 -216 0
221 -220 0
-221 216 220 0
-223 188 0
-223 217 0
223 -188 -217 0
224 -222 -223 0
224 222 223 0
-224 -222 223 0
-224 222 -223 0
225 224 0
-225 -224 0
226 -221 0
226 -225 0
-226 221 225 0
-229 184 0
-229 228 0
229 -184 -228 0
-230 229 0
-230 222 0
230 -229 -222 0
231 -227 -230 0
231 227 230 0
-231 -227 230 0
-231 227 -230 0
232 231 0
-232 -231 0
233 -226 0
233 -232 0
-233 226 232 0
-235 198 0
-235 217 0
235 -198 -217 0
236 -234 -235 0
236 234 235 0
-236 -234 235 0
-236 234 -235 0
237 236 0
-237 -236 0
238 -233 0
238 -237 0
-238 233 237 0
-241 184 0
-241 240 0
241 -184 -240 0
-242 241 0
-242 234 0
242 -241 -234 0
243 -239 -242 0
243 239 242 0
-243 -239 242 0
-243 239 -242 0
244 243 0
-244 -243 0
245 -238 0
245 -244 0
-245 238 244 0
-247 208 0
-247 217 0
247 -208 -217 0
248 -246 -247 0
248 246 247 0
-248 -246 247 0
-248 246 -247 0
249 248 0
-249 -248 0
250 -245 0
250 -249 0
-250 245 249 0
-253 184 0
-253 252 0
253 -184 -252 0
-254 253 0
-254 246 0
254 -253 -246 0
255 -251 -254 0
255 251 254 0
-255 -251 254 0
-255 251 -254 0
256 255 0
-256 -255 0
257 -250 0
257 -256 0
-257 250 256 0
260 -258 -259 0
260 258 259 0
-260 -258 259 0
-260 258 -259 0
261 260 0
-261 -260 0
262 -257 0
262 -261 0
-262 257 261 0
264 -263 -154 0
264 263 154 0
-264 -263 154 0
-264 263 -154 0
265 264 0
-265 -264 0
266 -262 0
266 -265 0
-266 262 265 0
268 -267 -171 0
268 267 171 0
-268 -267 171 0
-268 267 -171 0
269 268 0
-269 -268 0
270 -266 0
270 -269 0
-270 266 269 0
273 -271 -272 0
273 271 272 0
-273 -271 272 0
-273 271 -272 0
274 273 0
-274 -273 0
275 -270 0
275 -274 0
-275 270 274 0
-277 167 0
-277 30 0
277 -167 -30 0
278 -276 -277 0
278 276 277 0
-278 -276 277 0
-278 276 -277 0
279 278 0
-279 -278 0
280 -275 0
280 -279 0
-280 275 279 0
-282 158 0
-282 276 0
282 -158 -276 0
283 -281 -282 0
283 281 282 0
-283 -281 282 0
-283 281 -282 0
284 283 0
-284 -283 0
285 -280 0
285 -284 0
-285 280 284 0
287 -286 -188 0
287 286 188 0
-287 -286 188 0
-287 286 -188 0
288 287 0
-288 -287 0
289 -285 0
289 -288 0
-289 285 288 0
291 -290 -276 0
291 290 276 0
-291 -290 276 0
-291 290 -276 0
292 291 0
-292 -291 0
293 -289 0
293 -292 0
-293 289 292 0
-295 198 0
-295 276 0
295 -198 -276 0
296 -294 -295 0
296 294 295 0
-296 -294 295 0
-296 294 -295 0
297 296 0
-297 -296 0
298 -293 0
298 -297 0
-298 293 297 0
-300 208 0
-300 276 0
300 -208 -276 0
301 -299 -300 0
301 299 300 0
-301 -299 300 0
-301 299 -300 0
302 301 0
-302 -301 0
303 -298 0
303 -302 0
-303 298 302 0
305 -304 -126 0
305 304 126 0
-305 -304 126 0
-305 304 -126 0
306 305 0
-306 -305 0
307 -303 0
307 -306 0
-307 303 306 0
-309 158 0
-309 304 0
309 -158 -304 0
310 -308 -309 0
310 308 309 0
-310 -308 309 0
-310 308 -309 0
311 310 0
-311 -310 0
312 -307 0
312 -311 0
-312 307 311 0
-314 188 0
-314 304 0
314 -188 -304 0
315 -313 -314 0
315 313 314 0
-315 -313 314 0
-315 313 -314 0
316 315 0
-316 -315 0
317 -312 0
317 -316 0
-317 312 316 0
-319 198 0
-319 304 0
319 -198 -304 0
320 -318 -319 0
320 318 319 0
-320 -318 319 0
-320 318 -319 0
321 320 0
-321 -320 0
322 -317 0
322 -321 0
-322 317 321 0
324 -323 -208 0
324 323 208 0
-324 -323 208 0
-324 323 -208 0
325 324 0
-325 -324 0
326 -322 0
326 -325 0
-326 322 325 0
328 -327 -304 0
328 327 304 0
-328 -327 304 0
-328 327 -304 0
329 328 0
-329 -328 0
330 -326 0
330 -329 0
-330 326 329 0
-332 158 0
-332 175 0
332 -158 -175 0
333 -331 -332 0
333 331 332 0
-333 -331 332 0
-333 331 -332 0
334 333 0
-334 -333 0
335 -330 0
335 -334 0
-335 330 334 0
-337 188 0
-337 276 0
337 -188 -276 0
338 -336 -337 0
338 336 337 0
-338 -336 337 0
-338 336 -337 0
339 338 0
-339 -338 0
340 -335 0
340 -339 0
-340 335 339 0
-342 208 0
-342 304 0
342 -208 -304 0
343 -341 -342 0
343 341 342 0
-343 -341 342 0
-343 341 -342 0
344 343 0
-344 -343 0
345 -340 0
345 -344 0
-345 340 344 0
-348 184 0
-348 347 0
348 -184 -347 0
-349 348 0
-349 193 0
349 -348 -193 0
350 349 0
-350 -349 0
351 -346 0
351 -350 0
-351 346 350 0
-353 184 0
-353 352 0
353 -184 -352 0
-354 353 0
-354 203 0
354 -353 -203 0
-356 184 0
-356 355 0
356 -184 -355 0
-357 356 0
-357 212 0
357 -356 -212 0
358 -354 0
358 -357 0
-358 354 357 0
359 -351 0
359 -358 0
-359 351 358 0
361 -359 0
361 -360 0
-361 359 360 0
-363 184 0
-363 362 0
363 -184 -362 0
-364 363 0
-364 281 0
364 -363 -281 0
366 -364 0
366 -365 0
-366 364 365 0
-368 184 0
-368 367 0
368 -184 -367 0
-369 368 0
-369 294 0
369 -368 -294 0
-371 184 0
-371 370 0
371 -184 -370 0
-372 371 0
-372 299 0
372 -371 -299 0
373 -369 0
373 -372 0
-373 369 372 0
374 -366 0
374 -373 0
-374 366 373 0
-376 184 0
-376 375 0
376 -184 -375 0
-377 376 0
-377 308 0
377 -376 -308 0
-379 184 0
-379 378 0
379 -184 -378 0
-380 379 0
-380 313 0
380 -379 -313 0
381 -377 0
381 -380 0
-381 377 380 0
-383 184 0
-383 382 0
383 -184 -382 0
-384 383 0
-384 318 0
384 -383 -318 0
386 -384 0
386 -385 0
-386 384 385 0
387 -381 0
387 -386 0
-387 381 386 0
388 -374 0
388 -387 0
-388 374 387 0
389 -361 0
389 -388 0
-389 361 388 0
-391 2 0
-391 390 0
391 -2 -390 0
-392 391 0
-392 331 0
392 -391 -331 0
-394 2 0
-394 393 0
394 -2 -393 0
-395 394 0
-395 193 0
395 -394 -193 0
396 -392 0
396 -395 0
-396 392 395 0
-398 2 0
-398 397 0
398 -2 -397 0
-399 398 0
-399 203 0
399 -398 -203 0
-401 2 0
-401 400 0
401 -2 -400 0
-402 401 0
-402 212 0
402 -401 -212 0
403 -399 0
403 -402 0
-403 399 402 0
404 -396 0
404 -403 0
-404 396 403 0
-406 2 0
-406 405 0
406 -2 -405 0
-407 406 0
-407 272 0
407 -406 -272 0
-409 2 0
-409 408 0
409 -2 -408 0
-410 409 0
-410 222 0
410 -409 -222 0
411 -407 0
411 -410 0
-411 407 410 0
-413 2 0
-413 412 0
413 -2 -412 0
-414 413 0
-414 234 0
414 -413 -234 0
-416 2 0
-416 415 0
416 -2 -415 0
-417 416 0
-417 246 0
417 -416 -246 0
418 -414 0
418 -417 0
-418 414 417 0
419 -411 0
419 -418 0
-419 411 418 0
420 -404 0
420 -419 0
-420 404 419 0
-422 2 0
-422 421 0
422 -2 -421 0
-423 422 0
-423 281 0
423 -422 -281 0
-425 2 0
-425 424 0
425 -2 -424 0
-426 425 0
-426 336 0
426 -425 -336 0
427 -423 0
427 -426 0
-427 423 426 0
-429 2 0
-429 428 0
429 -2 -428 0
-430 429 0
-430 294 0
430 -429 -294 0
-432 2 0
-432 431 0
432 -2 -431 0
-433 432 0
-433 299 0
433 -432 -299 0
434 -430 0
434 -433 0
-434 430 433 0
435 -427 0
435 -434 0
-435 427 434 0
-437 436 0
-437 308 0
437 -436 -308 0
-439 2 0
-439 438 0
439 -2 -438 0
-440 439 0
-440 313 0
440 -439 -313 0
441 -437 0
441 -440 0
-441 437 440 0
-443 2 0
-443 442 0
443 -2 -442 0
-444 443 0
-444 318 0
444 -443 -318 0
-446 2 0
-446 445 0
446 -2 -445 0
-447 446 0
-447 341 0
447 -446 -341 0
448 -444 0
448 -447 0
-448 444 447 0
449 -441 0
449 -448 0
-449 441 448 0
450 -435 0
450 -449 0
-450 435 449 0
451 -420 0
451 -450 0
-451 420 450 0
452 -389 0
452 -451 0
-452 389 451 0
-454 1 0
-454 453 0
454 -1 -453 0
-455 454 0
-455 40 0
455 -454 -40 0
-456 1 0
-456 347 0
456 -1 -347 0
-457 456 0
-457 50 0
457 -456 -50 0
458 -455 0
458 -457 0
-458 455 457 0
-459 1 0
-459 352 0
459 -1 -352 0
-460 459 0
-460 60 0
460 -459 -60 0
-461 1 0
-461 355 0
461 -1 -355 0
-462 461 0
-462 70 0
462 -461 -70 0
463 -460 0
463 -462 0
-463 460 462 0
464 -458 0
464 -463 0
-464 458 463 0
-466 1 0
-466 465 0
466 -1 -465 0
-467 466 0
-467 80 0
467 -466 -80 0
-468 1 0
-468 228 0
468 -1 -228 0
-469 468 0
-469 85 0
469 -468 -85 0
470 -467 0
470 -469 0
-470 467 469 0
-471 1 0
-471 240 0
471 -1 -240 0
-472 471 0
-472 90 0
472 -471 -90 0
-473 1 0
-473 252 0
473 -1 -252 0
-474 473 0
-474 95 0
474 -473 -95 0
475 -472 0
475 -474 0
-475 472 474 0
476 -470 0
476 -475 0
-476 470 475 0
477 -464 0
477 -476 0
-477 464 476 0
-478 1 0
-478 362 0
478 -1 -362 0
-479 478 0
-479 105 0
479 -478 -105 0
-481 1 0
-481 480 0
481 -1 -480 0
-482 481 0
-482 110 0
482 -481 -110 0
483 -479 0
483 -482 0
-483 479 482 0
-484 1 0
-484 367 0
484 -1 -367 0
-485 484 0
-485 115 0
485 -484 -115 0
-486 1 0
-486 370 0
486 -1 -370 0
-487 486 0
-487 120 0
487 -486 -120 0
488 -485 0
488 -487 0
-488 485 487 0
489 -483 0
489 -488 0
-489 483 488 0
-490 1 0
-490 375 0
490 -1 -375 0
-491 490 0
-491 130 0
491 -490 -130 0
-492 1 0
-492 378 0
492 -1 -378 0
-493 492 0
-493 135 0
493 -492 -135 0
494 -491 0
494 -493 0
-494 491 493 0
-495 1 0
-495 382 0
495 -1 -382 0
-496 495 0
-496 140 0
496 -495 -140 0
-498 1 0
-498 497 0
498 -1 -497 0
-499 498 0
-499 145 0
499 -498 -145 0
500 -496 0
500 -499 0
-500 496 499 0
501 -494 0
501 -500 0
-501 494 500 0
502 -489 0
502 -501 0
-502 489 501 0
503 -477 0
503 -502 0
-503 477 502 0
-504 391 0
-504 40 0
504 -391 -40 0
-505 394 0
-505 50 0
505 -394 -50 0
506 -504 0
506 -505 0
-506 504 505 0
-507 398 0
-507 60 0
507 -398 -60 0
-508 401 0
-508 70 0
508 -401 -70 0
509 -507 0
509 -508 0
-509 507 508 0
510 -506 0
510 -509 0
-510 506 509 0
-511 406 0
-511 80 0
511 -406 -80 0
-512 409 0
-512 85 0
512 -409 -85 0
513 -511 0
513 -512 0
-513 511 512 0
-514 413 0
-514 90 0
514 -413 -90 0
-515 416 0
-515 95 0
515 -416 -95 0
516 -514 0
516 -515 0
-516 514 515 0
517 -513 0
517 -516 0
-517 513 516 0
518 -510 0
518 -517 0
-518 510 517 0
-519 422 0
-519 105 0
519 -422 -105 0
-520 425 0
-520 110 0
520 -425 -110 0
521 -519 0
521 -520 0
-521 519 520 0
-522 429 0
-522 115 0
522 -429 -115 0
-523 432 0
-523 120 0
523 -432 -120 0
524 -522 0
524 -523 0
-524 522 523 0
525 -521 0
525 -524 0
-525 521 524 0
-527 2 0
-527 526 0
527 -2 -526 0
-528 527 0
-528 130 0
528 -527 -130 0
-529 439 0
-529 135 0
529 -439 -135 0
530 -528 0
530 -529 0
-530 528 529 0
-531 443 0
-531 140 0
531 -443 -140 0
-532 446 0
-532 145 0
532 -446 -145 0
533 -531 0
533 -532 0
-533 531 532 0
534 -530 0
534 -533 0
-534 530 533 0
535 -525 0
535 -534 0
-535 525 534 0
536 -518 0
536 -535 0
-536 518 535 0
537 -503 0
537 -536 0
-537 503 536 0
538 -452 -537 0
538 452 537 0
-538 -452 537 0
-538 452 -537 0
539 -345 0
539 -538 0
-539 345 538 0
539 0
